NAME : rbg040a.tw.5679.tour
COMMENT : Length = 5679
COMMENT : Found by LKH [Keld Helsgaun] Tue Nov  7 19:33:19 2017
TYPE : TOUR
DIMENSION : 41
TOUR_SECTION
1
3
2
4
7
6
5
10
9
8
16
14
18
11
12
15
19
13
17
24
23
20
26
28
25
22
21
31
27
29
32
30
33
35
34
38
39
40
37
36
41
-1
EOF
